# Solution for model problem
# Objective value = 3
fft_master 1
matrix_master 1
ifft_master 1
src_master 1
src_slave 0
C_fft_src 0
C_matrix_src 0
C_ifft_src 0
C_fir_src 1
C_angle_src 1
C_road_src 1
C_table_src 1
C_sink_src 1
map_src_CLIENT_PE0 0
map_src_CLIENT_PE1 0
map_src_CLIENT_PE2 0
map_src_CLIENT_PE3 0
map_src_CLIENT_PE4 0
map_src_CLIENT_PE5 0
map_src_CLIENT_PE6 1
map_src_CLIENT_PE7 0
map_src_CLIENT_PE8 0
map_src_CLIENT_PE9 0
map_src_CLIENT_PE10 0
map_src_CLIENT_PE11 0
map_src_CLIENT_PE12 0
map_src_CLIENT_PE13 0
map_src_CLIENT_PE14 0
map_src_CLIENT_PE15 0
map_src_CLIENT_PE16 0
dvfs_0_src 0
dvfs_1_src 0
dvfs_2_src 0
dvfs_3_src 0
dvfs_4_src 1
C_src_fft 0
C_src_matrix 0
C_src_ifft 0
C_src_fir 0
C_src_angle 0
C_src_road 0
C_src_table 0
C_src_sink 0
fft_slave 0
C_matrix_fft 0
C_ifft_fft 0
C_fir_fft 0
C_angle_fft 0
C_road_fft 0
C_table_fft 0
C_sink_fft 0
map_fft_CLIENT_PE0 0
map_fft_CLIENT_PE2 0
map_fft_CLIENT_PE3 0
map_fft_CLIENT_PE4 0
map_fft_CLIENT_PE6 0
map_fft_CLIENT_PE7 0
map_fft_CLIENT_PE13 0
map_fft_CLIENT_PE14 1
dvfs_0_fft 0
dvfs_1_fft 0
dvfs_2_fft 0
dvfs_3_fft 0
dvfs_4_fft 1
C_fft_matrix 0
C_fft_ifft 0
C_fft_fir 0
C_fft_angle 0
C_fft_road 0
C_fft_table 0
C_fft_sink 0
matrix_slave 0
C_ifft_matrix 0
C_fir_matrix 0
C_angle_matrix 0
C_road_matrix 0
C_table_matrix 0
C_sink_matrix 0
map_matrix_CLIENT_PE0 0
map_matrix_CLIENT_PE2 0
map_matrix_CLIENT_PE3 0
map_matrix_CLIENT_PE4 0
map_matrix_CLIENT_PE6 0
map_matrix_CLIENT_PE7 1
map_matrix_CLIENT_PE13 0
map_matrix_CLIENT_PE14 0
dvfs_0_matrix 0
dvfs_1_matrix 0
dvfs_2_matrix 0
dvfs_3_matrix 0
dvfs_4_matrix 1
C_matrix_ifft 0
C_matrix_fir 0
C_matrix_angle 0
C_matrix_road 0
C_matrix_table 0
C_matrix_sink 0
ifft_slave 0
C_fir_ifft 0
C_angle_ifft 0
C_road_ifft 0
C_table_ifft 0
C_sink_ifft 0
map_ifft_CLIENT_PE0 0
map_ifft_CLIENT_PE2 0
map_ifft_CLIENT_PE3 0
map_ifft_CLIENT_PE4 0
map_ifft_CLIENT_PE6 0
map_ifft_CLIENT_PE7 0
map_ifft_CLIENT_PE13 0
map_ifft_CLIENT_PE14 1
dvfs_0_ifft 0
dvfs_1_ifft 0
dvfs_2_ifft 0
dvfs_3_ifft 0
dvfs_4_ifft 1
C_ifft_fir 0
C_ifft_angle 0
C_ifft_road 0
C_ifft_table 0
C_ifft_sink 0
fir_master 0
fir_slave 1
C_angle_fir 0
C_road_fir 0
C_table_fir 0
C_sink_fir 0
map_fir_CLIENT_PE0 0
map_fir_CLIENT_PE2 0
map_fir_CLIENT_PE3 0
map_fir_CLIENT_PE4 0
map_fir_CLIENT_PE6 0
map_fir_CLIENT_PE7 0
map_fir_CLIENT_PE13 0
map_fir_CLIENT_PE14 0
dvfs_0_fir 0
dvfs_1_fir 0
dvfs_2_fir 0
dvfs_3_fir 0
dvfs_4_fir 0
C_fir_angle 0
C_fir_road 0
C_fir_table 0
C_fir_sink 0
angle_master 0
angle_slave 1
C_road_angle 0
C_table_angle 0
C_sink_angle 0
map_angle_CLIENT_PE0 0
map_angle_CLIENT_PE2 0
map_angle_CLIENT_PE3 0
map_angle_CLIENT_PE4 0
map_angle_CLIENT_PE6 0
map_angle_CLIENT_PE7 0
map_angle_CLIENT_PE13 0
map_angle_CLIENT_PE14 0
dvfs_0_angle 0
dvfs_1_angle 0
dvfs_2_angle 0
dvfs_3_angle 0
dvfs_4_angle 0
C_angle_road 0
C_angle_table 0
C_angle_sink 0
road_master 0
road_slave 1
C_table_road 0
C_sink_road 0
map_road_CLIENT_PE0 0
map_road_CLIENT_PE2 0
map_road_CLIENT_PE3 0
map_road_CLIENT_PE4 0
map_road_CLIENT_PE6 0
map_road_CLIENT_PE7 0
map_road_CLIENT_PE13 0
map_road_CLIENT_PE14 0
dvfs_0_road 0
dvfs_1_road 0
dvfs_2_road 0
dvfs_3_road 0
dvfs_4_road 0
C_road_table 0
C_road_sink 0
table_master 0
table_slave 1
C_sink_table 0
map_table_CLIENT_PE0 0
map_table_CLIENT_PE2 0
map_table_CLIENT_PE3 0
map_table_CLIENT_PE4 0
map_table_CLIENT_PE6 0
map_table_CLIENT_PE7 0
map_table_CLIENT_PE13 0
map_table_CLIENT_PE14 0
dvfs_0_table 0
dvfs_1_table 0
dvfs_2_table 0
dvfs_3_table 0
dvfs_4_table 0
C_table_sink 0
sink_master 0
sink_slave 1
map_sink_CLIENT_PE0 0
map_sink_CLIENT_PE1 0
map_sink_CLIENT_PE2 0
map_sink_CLIENT_PE3 0
map_sink_CLIENT_PE4 0
map_sink_CLIENT_PE5 0
map_sink_CLIENT_PE6 0
map_sink_CLIENT_PE7 0
map_sink_CLIENT_PE8 0
map_sink_CLIENT_PE9 0
map_sink_CLIENT_PE10 0
map_sink_CLIENT_PE11 0
map_sink_CLIENT_PE12 0
map_sink_CLIENT_PE13 0
map_sink_CLIENT_PE14 0
map_sink_CLIENT_PE15 0
map_sink_CLIENT_PE16 0
dvfs_0_sink 0
dvfs_1_sink 0
dvfs_2_sink 0
dvfs_3_sink 0
dvfs_4_sink 0
sl_0_a2_01 1
sl_1_a2_01 0
sl_2_a2_01 0
sl_3_a2_01 0
sl_4_a2_01 0
sl_5_a2_01 0
sl_6_a2_01 0
sl_7_a2_01 0
sl_8_a2_01 0
sl_9_a2_01 0
hop_1_a2_01 1
hop_2_a2_01 0
hop_3_a2_01 0
hop_4_a2_01 0
hop_5_a2_01 0
hop_6_a2_01 0
hop_7_a2_01 0
hop_8_a2_01 0
hop_9_a2_01 0
hop_10_a2_01 0
hop_11_a2_01 0
hop_12_a2_01 0
hop_13_a2_01 0
hop_14_a2_01 0
sl_0_a2_12 1
sl_1_a2_12 0
sl_2_a2_12 0
sl_3_a2_12 0
sl_4_a2_12 0
sl_5_a2_12 0
sl_6_a2_12 0
sl_7_a2_12 0
sl_8_a2_12 0
sl_9_a2_12 0
hop_1_a2_12 1
hop_2_a2_12 0
hop_3_a2_12 0
hop_4_a2_12 0
hop_5_a2_12 0
hop_6_a2_12 0
hop_7_a2_12 0
hop_8_a2_12 0
hop_9_a2_12 0
hop_10_a2_12 0
hop_11_a2_12 0
hop_12_a2_12 0
hop_13_a2_12 0
hop_14_a2_12 0
sl_0_a2_23 1
sl_1_a2_23 0
sl_2_a2_23 0
sl_3_a2_23 0
sl_4_a2_23 0
sl_5_a2_23 0
sl_6_a2_23 0
sl_7_a2_23 0
sl_8_a2_23 0
sl_9_a2_23 0
hop_1_a2_23 1
hop_2_a2_23 0
hop_3_a2_23 0
hop_4_a2_23 0
hop_5_a2_23 0
hop_6_a2_23 0
hop_7_a2_23 0
hop_8_a2_23 0
hop_9_a2_23 0
hop_10_a2_23 0
hop_11_a2_23 0
hop_12_a2_23 0
hop_13_a2_23 0
hop_14_a2_23 0
sl_0_a2_34 1
sl_1_a2_34 0
sl_2_a2_34 0
sl_3_a2_34 0
sl_4_a2_34 0
sl_5_a2_34 0
sl_6_a2_34 0
sl_7_a2_34 0
sl_8_a2_34 0
sl_9_a2_34 0
hop_1_a2_34 1
hop_2_a2_34 0
hop_3_a2_34 0
hop_4_a2_34 0
hop_5_a2_34 0
hop_6_a2_34 0
hop_7_a2_34 0
hop_8_a2_34 0
hop_9_a2_34 0
hop_10_a2_34 0
hop_11_a2_34 0
hop_12_a2_34 0
hop_13_a2_34 0
hop_14_a2_34 0
sl_0_a2_45 1
sl_1_a2_45 0
sl_2_a2_45 0
sl_3_a2_45 0
sl_4_a2_45 0
sl_5_a2_45 0
sl_6_a2_45 0
sl_7_a2_45 0
sl_8_a2_45 0
sl_9_a2_45 0
hop_1_a2_45 1
hop_2_a2_45 0
hop_3_a2_45 0
hop_4_a2_45 0
hop_5_a2_45 0
hop_6_a2_45 0
hop_7_a2_45 0
hop_8_a2_45 0
hop_9_a2_45 0
hop_10_a2_45 0
hop_11_a2_45 0
hop_12_a2_45 0
hop_13_a2_45 0
hop_14_a2_45 0
sl_0_a2_56 1
sl_1_a2_56 0
sl_2_a2_56 0
sl_3_a2_56 0
sl_4_a2_56 0
sl_5_a2_56 0
sl_6_a2_56 0
sl_7_a2_56 0
sl_8_a2_56 0
sl_9_a2_56 0
hop_1_a2_56 1
hop_2_a2_56 0
hop_3_a2_56 0
hop_4_a2_56 0
hop_5_a2_56 0
hop_6_a2_56 0
hop_7_a2_56 0
hop_8_a2_56 0
hop_9_a2_56 0
hop_10_a2_56 0
hop_11_a2_56 0
hop_12_a2_56 0
hop_13_a2_56 0
hop_14_a2_56 0
sl_0_a2_67 1
sl_1_a2_67 0
sl_2_a2_67 0
sl_3_a2_67 0
sl_4_a2_67 0
sl_5_a2_67 0
sl_6_a2_67 0
sl_7_a2_67 0
sl_8_a2_67 0
sl_9_a2_67 0
hop_1_a2_67 1
hop_2_a2_67 0
hop_3_a2_67 0
hop_4_a2_67 0
hop_5_a2_67 0
hop_6_a2_67 0
hop_7_a2_67 0
hop_8_a2_67 0
hop_9_a2_67 0
hop_10_a2_67 0
hop_11_a2_67 0
hop_12_a2_67 0
hop_13_a2_67 0
hop_14_a2_67 0
sl_0_a2_78 1
sl_1_a2_78 0
sl_2_a2_78 0
sl_3_a2_78 0
sl_4_a2_78 0
sl_5_a2_78 0
sl_6_a2_78 0
sl_7_a2_78 0
sl_8_a2_78 0
sl_9_a2_78 0
hop_1_a2_78 1
hop_2_a2_78 0
hop_3_a2_78 0
hop_4_a2_78 0
hop_5_a2_78 0
hop_6_a2_78 0
hop_7_a2_78 0
hop_8_a2_78 0
hop_9_a2_78 0
hop_10_a2_78 0
hop_11_a2_78 0
hop_12_a2_78 0
hop_13_a2_78 0
hop_14_a2_78 0
sl_0_a2_89 1
sl_1_a2_89 0
sl_2_a2_89 0
sl_3_a2_89 0
sl_4_a2_89 0
sl_5_a2_89 0
sl_6_a2_89 0
sl_7_a2_89 0
sl_8_a2_89 0
sl_9_a2_89 0
hop_1_a2_89 1
hop_2_a2_89 0
hop_3_a2_89 0
hop_4_a2_89 0
hop_5_a2_89 0
hop_6_a2_89 0
hop_7_a2_89 0
hop_8_a2_89 0
hop_9_a2_89 0
hop_10_a2_89 0
hop_11_a2_89 0
hop_12_a2_89 0
hop_13_a2_89 0
hop_14_a2_89 0
